
  22    4
  10   10   10   10

   0   0   0   0   0   6 2 3 4 6 8 10 
  10  10  10  10  10   2 7 5 
   5  10  10  10  10   2 11 7 
   7  10  10  10  10   2 11 7 
   9  10  10  10  10   3 17 12 11 
   1  10  10  10  10   3 17 12 11 
   4  10  10  10  10   2 17 9 
   6  10  10  10  10   1 9 
   4  10  10  10  10   2 15 12 
  10  10  10  10  10   2 17 12 
   6  10  10  10  10   2 15 13 
  10  10  10  10  10   1 13 
   6  10  10  10  10   1 14 
   3  10  10  10  10   4 21 20 18 16 
  10  10  10  10  10   3 20 18 16 
   7  10  10  10  10   1 19 
   6  10  10  10  10   1 18 
   6  10  10  10  10   1 22
   6  10  10  10  10   1 22
   4  10  10  10  10   1 22
  10  10  10  10  10   1 22
   0   0   0   0   0   0 
